objective value:                                10114
t_x_1                                               1 	(obj:6)
t_x_4                                               1 	(obj:10)
t_x_6                                               1 	(obj:59)
t_x_7                                               1 	(obj:12)
t_x_8                                               1 	(obj:37)
t_x_10                                              1 	(obj:39)
t_x_11                                              1 	(obj:28)
t_x_13                                              1 	(obj:39)
t_x_16                                              1 	(obj:2)
t_x_20                                              1 	(obj:57)
t_x_21                                              1 	(obj:0)
t_x_24                                              1 	(obj:33)
t_x_28                                              1 	(obj:15)
t_x_29                                              1 	(obj:49)
t_x_30                                              1 	(obj:11)
t_x_32                                              1 	(obj:18)
t_x_33                                              1 	(obj:33)
t_x_34                                              1 	(obj:6)
t_x_36                                              1 	(obj:6)
t_x_37                                              1 	(obj:5)
t_x_38                                              1 	(obj:27)
t_x_39                                              1 	(obj:19)
t_x_42                                              1 	(obj:39)
t_x_43                                              1 	(obj:42)
t_x_44                                              1 	(obj:7)
t_x_49                                              1 	(obj:37)
t_x_52                                              1 	(obj:27)
t_x_53                                              1 	(obj:4)
t_x_54                                              1 	(obj:42)
t_x_58                                              1 	(obj:38)
t_x_59                                              1 	(obj:26)
t_x_60                                              1 	(obj:67)
t_x_61                                              1 	(obj:55)
t_x_62                                              1 	(obj:11)
t_x_63                                              1 	(obj:18)
t_x_68                                              1 	(obj:8)
t_x_70                                              1 	(obj:11)
t_x_74                                              1 	(obj:19)
t_x_79                                              1 	(obj:22)
t_x_80                                              1 	(obj:0)
t_x_81                                              1 	(obj:22)
t_x_85                                              1 	(obj:16)
t_x_87                                              1 	(obj:17)
t_x_88                                              1 	(obj:26)
t_x_89                                              1 	(obj:6)
t_x_94                                              1 	(obj:32)
t_x_96                                              1 	(obj:56)
t_x_98                                              1 	(obj:6)
t_x_103                                             1 	(obj:14)
t_x_108                                             1 	(obj:11)
t_x_109                                             1 	(obj:14)
t_x_111                                             1 	(obj:32)
t_x_113                                             1 	(obj:8)
t_x_118                                             1 	(obj:42)
t_x_119                                             1 	(obj:4)
t_x_122                                             1 	(obj:21)
t_x_123                                             1 	(obj:31)
t_x_125                                             1 	(obj:3)
t_x_126                                             1 	(obj:0)
t_x_133                                             1 	(obj:2)
t_x_134                                             1 	(obj:26)
t_x_138                                             1 	(obj:18)
t_x_141                                             1 	(obj:10)
t_x_143                                             1 	(obj:26)
t_x_145                                             1 	(obj:8)
t_x_150                                             1 	(obj:17)
t_x_156                                             1 	(obj:0)
t_x_157                                             1 	(obj:4)
t_x_160                                             1 	(obj:22)
t_x_164                                             1 	(obj:55)
t_x_166                                             1 	(obj:2)
t_x_168                                             1 	(obj:15)
t_x_173                                             1 	(obj:8)
t_x_174                                             1 	(obj:32)
t_x_175                                             1 	(obj:42)
t_x_176                                             1 	(obj:16)
t_x_179                                             1 	(obj:42)
t_x_183                                             1 	(obj:17)
t_x_187                                             1 	(obj:1)
t_x_197                                             1 	(obj:14)
t_x_198                                             1 	(obj:3)
t_x_200                                             1 	(obj:15)
t_x_202                                             1 	(obj:16)
t_x_217                                             1 	(obj:19)
t_x_224                                             1 	(obj:36)
t_x_230                                             1 	(obj:5)
t_x_233                                             1 	(obj:10)
t_x_237                                             1 	(obj:16)
t_x_241                                             1 	(obj:23)
t_x_242                                             1 	(obj:26)
t_x_243                                             1 	(obj:17)
t_x_244                                             1 	(obj:2)
t_x_245                                             1 	(obj:4)
t_x_248                                             1 	(obj:14)
t_x_256                                             1 	(obj:26)
t_x_259                                             1 	(obj:7)
t_x_263                                             1 	(obj:22)
t_x_264                                             1 	(obj:1)
t_x_269                                             1 	(obj:15)
t_x_271                                             1 	(obj:11)
t_x_272                                             1 	(obj:14)
t_x_273                                             1 	(obj:23)
t_x_274                                             1 	(obj:21)
t_x_276                                             1 	(obj:10)
t_x_278                                             1 	(obj:42)
t_x_280                                             1 	(obj:20)
t_x_282                                             1 	(obj:2)
t_x_285                                             1 	(obj:6)
t_x_286                                             1 	(obj:12)
t_x_288                                             1 	(obj:21)
t_x_294                                             1 	(obj:17)
t_x_297                                             1 	(obj:40)
t_x_301                                             1 	(obj:22)
t_x_304                                             1 	(obj:17)
t_x_308                                             1 	(obj:15)
t_x_311                                             1 	(obj:14)
t_x_312                                             1 	(obj:35)
t_x_314                                             1 	(obj:5)
t_x_318                                             1 	(obj:11)
t_x_321                                             1 	(obj:16)
t_x_323                                             1 	(obj:63)
t_x_326                                             1 	(obj:11)
t_x_329                                             1 	(obj:16)
t_x_330                                             1 	(obj:1)
t_x_332                                             1 	(obj:10)
t_x_335                                             1 	(obj:1)
t_x_339                                             1 	(obj:11)
t_x_341                                             1 	(obj:44)
t_x_342                                             1 	(obj:32)
t_x_343                                             1 	(obj:13)
t_x_352                                             1 	(obj:9)
t_x_358                                             1 	(obj:0)
t_x_362                                             1 	(obj:24)
t_x_363                                             1 	(obj:7)
t_x_366                                             1 	(obj:39)
t_x_373                                             1 	(obj:4)
t_x_381                                             1 	(obj:28)
t_x_386                                             1 	(obj:29)
t_x_393                                             1 	(obj:1)
t_x_395                                             1 	(obj:36)
t_x_396                                             1 	(obj:8)
t_x_399                                             1 	(obj:1)
t_x_408                                             1 	(obj:12)
t_x_411                                             1 	(obj:12)
t_x_412                                             1 	(obj:27)
t_x_414                                             1 	(obj:0)
t_x_418                                             1 	(obj:33)
t_x_425                                             1 	(obj:18)
t_x_434                                             1 	(obj:19)
t_x_439                                             1 	(obj:21)
t_x_441                                             1 	(obj:14)
t_x_443                                             1 	(obj:0)
t_x_447                                             1 	(obj:30)
t_x_448                                             1 	(obj:5)
t_x_455                                             1 	(obj:34)
t_x_457                                             1 	(obj:1)
t_x_460                                             1 	(obj:8)
t_x_462                                             1 	(obj:6)
t_x_464                                             1 	(obj:3)
t_x_467                                             1 	(obj:7)
t_x_473                                             1 	(obj:17)
t_x_476                                             1 	(obj:16)
t_x_488                                             1 	(obj:6)
t_x_491                                             1 	(obj:24)
t_x_494                                             1 	(obj:17)
t_x_496                                             1 	(obj:3)
t_x_501                                             1 	(obj:25)
t_x_506                                             1 	(obj:1)
t_x_509                                             1 	(obj:31)
t_x_510                                             1 	(obj:22)
t_x_511                                             1 	(obj:36)
t_x_512                                             1 	(obj:55)
t_x_513                                             1 	(obj:23)
t_x_518                                             1 	(obj:62)
t_x_520                                             1 	(obj:21)
t_x_526                                             1 	(obj:7)
t_x_532                                             1 	(obj:3)
t_x_548                                             1 	(obj:51)
t_x_549                                             1 	(obj:39)
t_x_551                                             1 	(obj:39)
t_x_563                                             1 	(obj:36)
t_x_571                                             1 	(obj:16)
t_x_572                                             1 	(obj:7)
t_x_583                                             1 	(obj:14)
t_x_585                                             1 	(obj:11)
t_x_592                                             1 	(obj:14)
t_x_594                                             1 	(obj:29)
t_x_600                                             1 	(obj:13)
t_x_602                                             1 	(obj:11)
t_x_603                                             1 	(obj:32)
t_x_609                                             1 	(obj:86)
t_x_616                                             1 	(obj:2)
t_x_618                                             1 	(obj:12)
t_x_619                                             1 	(obj:17)
t_x_621                                             1 	(obj:12)
t_x_622                                             1 	(obj:9)
t_x_623                                             1 	(obj:41)
t_x_624                                             1 	(obj:21)
t_x_625                                             1 	(obj:17)
t_x_626                                             1 	(obj:12)
t_x_634                                             1 	(obj:19)
t_x_635                                             1 	(obj:6)
t_x_636                                             1 	(obj:26)
t_x_639                                             1 	(obj:1)
t_x_642                                             1 	(obj:15)
t_x_643                                             1 	(obj:17)
t_x_647                                             1 	(obj:7)
t_x_648                                             1 	(obj:41)
t_x_654                                             1 	(obj:11)
t_x_666                                             1 	(obj:1)
t_x_668                                             1 	(obj:17)
t_x_670                                             1 	(obj:10)
t_x_676                                             1 	(obj:0)
t_x_688                                             1 	(obj:47)
t_x_689                                             1 	(obj:16)
t_x_690                                             1 	(obj:4)
t_x_691                                             1 	(obj:38)
t_x_696                                             1 	(obj:4)
t_x_702                                             1 	(obj:11)
t_x_704                                             1 	(obj:8)
t_x_707                                             1 	(obj:3)
t_x_710                                             1 	(obj:1)
t_x_713                                             1 	(obj:10)
t_x_716                                             1 	(obj:0)
t_x_718                                             1 	(obj:33)
t_x_721                                             1 	(obj:13)
t_x_722                                             1 	(obj:70)
t_x_724                                             1 	(obj:3)
t_x_726                                             1 	(obj:39)
t_x_729                                             1 	(obj:2)
t_x_738                                             1 	(obj:38)
t_x_741                                             1 	(obj:12)
t_x_743                                             1 	(obj:3)
t_x_747                                             1 	(obj:21)
t_x_748                                             1 	(obj:5)
t_x_751                                             1 	(obj:17)
t_x_756                                             1 	(obj:25)
t_x_757                                             1 	(obj:6)
t_x_762                                             1 	(obj:8)
t_x_769                                             1 	(obj:1)
t_x_771                                             1 	(obj:9)
t_x_780                                             1 	(obj:41)
t_x_782                                             1 	(obj:0)
t_x_793                                             1 	(obj:10)
t_x_798                                             1 	(obj:1)
t_x_801                                             1 	(obj:16)
t_x_803                                             1 	(obj:43)
t_x_806                                             1 	(obj:1)
t_x_807                                             1 	(obj:2)
t_x_809                                             1 	(obj:3)
t_x_814                                             1 	(obj:4)
t_x_820                                             1 	(obj:20)
t_x_821                                             1 	(obj:24)
t_x_822                                             1 	(obj:3)
t_x_827                                             1 	(obj:13)
t_x_829                                             1 	(obj:7)
t_x_830                                             1 	(obj:6)
t_x_832                                             1 	(obj:3)
t_x_843                                             1 	(obj:1)
t_x_844                                             1 	(obj:5)
t_x_847                                             1 	(obj:3)
t_x_850                                             1 	(obj:52)
t_x_853                                             1 	(obj:23)
t_x_857                                             1 	(obj:8)
t_x_858                                             1 	(obj:9)
t_x_859                                             1 	(obj:26)
t_x_860                                             1 	(obj:16)
t_x_861                                             1 	(obj:16)
t_x_874                                             1 	(obj:26)
t_x_875                                             1 	(obj:36)
t_x_879                                             1 	(obj:7)
t_x_884                                             1 	(obj:29)
t_x_885                                             1 	(obj:23)
t_x_887                                             1 	(obj:20)
t_x_888                                             1 	(obj:9)
t_x_891                                             1 	(obj:21)
t_x_892                                             1 	(obj:19)
t_x_903                                             1 	(obj:18)
t_x_908                                             1 	(obj:19)
t_x_909                                             1 	(obj:14)
t_x_911                                             1 	(obj:12)
t_x_912                                             1 	(obj:22)
t_x_916                                             1 	(obj:10)
t_x_921                                             1 	(obj:28)
t_x_923                                             1 	(obj:4)
t_x_925                                             1 	(obj:43)
t_x_933                                             1 	(obj:35)
t_x_937                                             1 	(obj:0)
t_x_945                                             1 	(obj:4)
t_x_946                                             1 	(obj:26)
t_x_951                                             1 	(obj:42)
t_x_954                                             1 	(obj:11)
t_x_958                                             1 	(obj:48)
t_x_961                                             1 	(obj:30)
t_x_962                                             1 	(obj:30)
t_x_969                                             1 	(obj:12)
t_x_974                                             1 	(obj:7)
t_x_975                                             1 	(obj:18)
t_x_976                                             1 	(obj:31)
t_x_979                                             1 	(obj:20)
t_x_985                                             1 	(obj:2)
t_x_988                                             1 	(obj:26)
t_x_991                                             1 	(obj:15)
t_x_993                                             1 	(obj:5)
t_x_995                                             1 	(obj:1)
t_x_1007                                            1 	(obj:4)
t_x_1012                                            1 	(obj:12)
t_x_1015                                            1 	(obj:14)
t_x_1018                                            1 	(obj:19)
t_x_1025                                            1 	(obj:17)
t_x_1026                                            1 	(obj:1)
t_x_1028                                            1 	(obj:6)
t_x_1029                                            1 	(obj:26)
t_x_1030                                            1 	(obj:0)
t_x_1031                                            1 	(obj:3)
t_x_1032                                            1 	(obj:16)
t_x_1041                                            1 	(obj:25)
t_x_1042                                            1 	(obj:11)
t_x_1044                                            1 	(obj:5)
t_x_1045                                            1 	(obj:5)
t_x_1048                                            1 	(obj:1)
t_x_1050                                            1 	(obj:18)
t_x_1055                                            1 	(obj:16)
t_x_1071                                            1 	(obj:6)
t_x_1073                                            1 	(obj:9)
t_x_1074                                            1 	(obj:22)
t_x_1078                                            1 	(obj:11)
t_x_1079                                            1 	(obj:25)
t_x_1080                                            1 	(obj:1)
t_x_1089                                            1 	(obj:26)
t_x_1092                                            1 	(obj:21)
t_x_1099                                            1 	(obj:4)
t_x_1102                                            1 	(obj:16)
t_x_1105                                            1 	(obj:2)
t_x_1106                                            1 	(obj:24)
t_x_1108                                            1 	(obj:8)
t_x_1110                                            1 	(obj:13)
t_x_1112                                            1 	(obj:21)
t_x_1115                                            1 	(obj:32)
t_x_1117                                            1 	(obj:10)
t_x_1119                                            1 	(obj:20)
t_x_1120                                            1 	(obj:29)
t_x_1124                                            1 	(obj:11)
t_x_1127                                            1 	(obj:14)
t_x_1141                                            1 	(obj:11)
t_x_1147                                            1 	(obj:2)
t_x_1157                                            1 	(obj:21)
t_x_1161                                            1 	(obj:24)
t_x_1164                                            1 	(obj:16)
t_x_1165                                            1 	(obj:22)
t_x_1166                                            1 	(obj:26)
t_x_1173                                            1 	(obj:21)
t_x_1178                                            1 	(obj:25)
t_x_1179                                            1 	(obj:8)
t_x_1185                                            1 	(obj:12)
t_x_1190                                            1 	(obj:12)
t_x_1191                                            1 	(obj:0)
t_x_1194                                            1 	(obj:7)
t_x_1195                                            1 	(obj:5)
t_x_1199                                            1 	(obj:17)
t_x_1203                                            1 	(obj:11)
t_x_1207                                            1 	(obj:26)
t_x_1212                                            1 	(obj:25)
t_x_1218                                            1 	(obj:29)
t_x_1219                                            1 	(obj:11)
t_x_1220                                            1 	(obj:3)
t_x_1221                                            1 	(obj:13)
t_x_1225                                            1 	(obj:10)
t_x_1231                                            1 	(obj:0)
t_x_1234                                            1 	(obj:21)
t_x_1236                                            1 	(obj:13)
t_x_1237                                            1 	(obj:5)
t_x_1246                                            1 	(obj:24)
t_x_1248                                            1 	(obj:33)
t_x_1251                                            1 	(obj:3)
t_x_1253                                            1 	(obj:11)
t_x_1254                                            1 	(obj:3)
t_x_1259                                            1 	(obj:5)
t_x_1261                                            1 	(obj:18)
t_x_1262                                            1 	(obj:34)
t_x_1265                                            1 	(obj:27)
t_x_1266                                            1 	(obj:71)
t_x_1273                                            1 	(obj:0)
t_x_1275                                            1 	(obj:11)
t_x_1276                                            1 	(obj:6)
t_x_1277                                            1 	(obj:23)
t_x_1282                                            1 	(obj:20)
t_x_1284                                            1 	(obj:17)
t_x_1295                                            1 	(obj:13)
t_x_1301                                            1 	(obj:22)
t_x_1302                                            1 	(obj:27)
t_x_1303                                            1 	(obj:4)
t_x_1305                                            1 	(obj:7)
t_x_1306                                            1 	(obj:15)
t_x_1308                                            1 	(obj:3)
t_x_1311                                            1 	(obj:13)
t_x_1316                                            1 	(obj:9)
t_x_1319                                            1 	(obj:9)
t_x_1320                                            1 	(obj:19)
t_x_1321                                            1 	(obj:6)
t_x_1327                                            1 	(obj:8)
t_x_1331                                            1 	(obj:52)
t_x_1334                                            1 	(obj:22)
t_x_1338                                            1 	(obj:46)
t_x_1340                                            1 	(obj:7)
t_x_1343                                            1 	(obj:20)
t_x_1347                                            1 	(obj:5)
t_x_1348                                            1 	(obj:31)
t_x_1354                                            1 	(obj:8)
t_x_1368                                            1 	(obj:2)
t_x_1375                                            1 	(obj:18)
t_x_1378                                            1 	(obj:26)
t_x_1379                                            1 	(obj:3)
t_x_1382                                            1 	(obj:7)
t_x_1384                                            1 	(obj:7)
t_x_1386                                            1 	(obj:39)
t_x_1387                                            1 	(obj:9)
t_x_1391                                            1 	(obj:42)
t_x_1392                                            1 	(obj:23)
t_x_1394                                            1 	(obj:3)
t_x_1398                                            1 	(obj:17)
t_x_1402                                            1 	(obj:44)
t_x_1404                                            1 	(obj:26)
t_x_1409                                            1 	(obj:31)
t_x_1413                                            1 	(obj:12)
t_x_1418                                            1 	(obj:46)
t_x_1424                                            1 	(obj:11)
t_x_1425                                            1 	(obj:18)
t_x_1426                                            1 	(obj:3)
t_x_1432                                            1 	(obj:4)
t_x_1434                                            1 	(obj:1)
t_x_1440                                            1 	(obj:16)
t_x_1443                                            1 	(obj:9)
t_x_1448                                            1 	(obj:10)
t_x_1449                                            1 	(obj:6)
t_x_1450                                            1 	(obj:2)
t_x_1451                                            1 	(obj:28)
t_x_1462                                            1 	(obj:35)
t_x_1464                                            1 	(obj:5)
t_x_1465                                            1 	(obj:20)
t_x_1471                                            1 	(obj:24)
t_x_1479                                            1 	(obj:3)
t_x_1483                                            1 	(obj:7)
t_x_1485                                            1 	(obj:15)
t_x_1486                                            1 	(obj:24)
t_x_1487                                            1 	(obj:32)
t_x_1497                                            1 	(obj:29)
t_x_1499                                            1 	(obj:9)
t_x_1503                                            1 	(obj:0)
t_x_1505                                            1 	(obj:44)
t_x_1511                                            1 	(obj:2)
t_x_1515                                            1 	(obj:11)
t_x_1518                                            1 	(obj:15)
t_x_1522                                            1 	(obj:0)
t_x_1528                                            1 	(obj:7)
t_x_1529                                            1 	(obj:15)
t_x_1530                                            1 	(obj:5)
t_x_1531                                            1 	(obj:10)
t_x_1532                                            1 	(obj:23)
t_x_1539                                            1 	(obj:34)
t_x_1542                                            1 	(obj:12)
t_x_1544                                            1 	(obj:32)
t_x_1546                                            1 	(obj:35)
t_x_1547                                            1 	(obj:3)
t_x_1557                                            1 	(obj:1)
t_x_1564                                            1 	(obj:26)
t_x_1567                                            1 	(obj:3)
t_x_1578                                            1 	(obj:9)
t_x_1580                                            1 	(obj:19)
t_x_1583                                            1 	(obj:7)
t_x_1585                                            1 	(obj:15)
t_x_1587                                            1 	(obj:12)
t_x_1593                                            1 	(obj:23)
t_x_1598                                            1 	(obj:36)
t_x_1602                                            1 	(obj:7)
t_x_1603                                            1 	(obj:9)
t_x_1606                                            1 	(obj:24)
t_x_1608                                            1 	(obj:19)
t_x_1610                                            1 	(obj:32)
t_x_1611                                            1 	(obj:57)
t_x_1612                                            1 	(obj:0)
t_x_1617                                            1 	(obj:9)
t_x_1618                                            1 	(obj:8)
t_x_1624                                            1 	(obj:25)
t_x_1627                                            1 	(obj:2)
t_x_1632                                            1 	(obj:32)
t_x_1634                                            1 	(obj:2)
t_x_1635                                            1 	(obj:25)
t_x_1637                                            1 	(obj:33)
t_x_1639                                            1 	(obj:6)
t_x_1643                                            1 	(obj:0)
t_x_1663                                            1 	(obj:54)
t_x_1664                                            1 	(obj:27)
t_x_1669                                            1 	(obj:18)
t_x_1672                                            1 	(obj:9)
t_x_1675                                            1 	(obj:6)
t_x_1677                                            1 	(obj:30)
t_x_1685                                            1 	(obj:2)
t_x_1687                                            1 	(obj:7)
t_x_1699                                            1 	(obj:48)
t_x_1701                                            1 	(obj:17)
t_x_1702                                            1 	(obj:8)
t_x_1703                                            1 	(obj:22)
t_x_1704                                            1 	(obj:17)
t_x_1707                                            1 	(obj:14)
t_x_1712                                            1 	(obj:9)
t_x_1713                                            1 	(obj:14)
t_x_1715                                            1 	(obj:16)
t_x_1717                                            1 	(obj:9)
t_x_1718                                            1 	(obj:41)
t_x_1721                                            1 	(obj:26)
t_x_1725                                            1 	(obj:0)
t_x_1727                                            1 	(obj:14)
t_x_1728                                            1 	(obj:7)
t_x_1729                                            1 	(obj:10)
t_x_1736                                            1 	(obj:14)
t_x_1738                                            1 	(obj:8)
t_x_1752                                            1 	(obj:47)
t_x_1755                                            1 	(obj:24)
t_x_1757                                            1 	(obj:10)
t_x_1758                                            1 	(obj:19)
t_x_1760                                            1 	(obj:15)
t_x_1761                                            1 	(obj:9)
t_x_1764                                            1 	(obj:3)
t_x_1770                                            1 	(obj:16)
t_x_1776                                            1 	(obj:10)
t_x_1778                                            1 	(obj:9)
t_x_1779                                            1 	(obj:20)
t_x_1783                                            1 	(obj:1)
t_x_1785                                            1 	(obj:14)
t_x_1789                                            1 	(obj:37)
t_x_1794                                            1 	(obj:20)
t_x_1796                                            1 	(obj:35)
t_x_1798                                            1 	(obj:27)
t_x_1802                                            1 	(obj:2)
t_x_1804                                            1 	(obj:19)
t_x_1806                                            1 	(obj:38)
t_x_1809                                            1 	(obj:26)
t_x_1811                                            1 	(obj:3)
t_x_1817                                            1 	(obj:7)
t_x_1828                                            1 	(obj:30)
t_x_1829                                            1 	(obj:13)
t_x_1832                                            1 	(obj:4)
t_x_1833                                            1 	(obj:20)
t_x_1837                                            1 	(obj:4)
t_x_1839                                            1 	(obj:12)
t_x_1841                                            1 	(obj:1)
t_x_1842                                            1 	(obj:8)
t_x_1849                                            1 	(obj:11)
t_x_1854                                            1 	(obj:2)
t_x_1855                                            1 	(obj:10)
t_x_1856                                            1 	(obj:12)
t_x_1860                                            1 	(obj:5)
t_x_1873                                            1 	(obj:22)
t_x_1876                                            1 	(obj:16)
t_x_1882                                            1 	(obj:53)
t_x_1886                                            1 	(obj:16)
t_x_1893                                            1 	(obj:5)
t_x_1895                                            1 	(obj:0)
t_x_1898                                            1 	(obj:7)
t_x_1900                                            1 	(obj:7)
t_x_1903                                            1 	(obj:1)
t_x_1905                                            1 	(obj:16)
t_x_1908                                            1 	(obj:13)
t_x_1914                                            1 	(obj:4)
t_x_1915                                            1 	(obj:26)
t_x_1918                                            1 	(obj:4)
t_x_1919                                            1 	(obj:19)
t_x_1927                                            1 	(obj:15)
t_x_1928                                            1 	(obj:2)
t_x_1933                                            1 	(obj:1)
t_x_1935                                            1 	(obj:11)
t_x_1940                                            1 	(obj:9)
t_x_1943                                            1 	(obj:2)
t_x_1944                                            1 	(obj:53)
t_x_1950                                            1 	(obj:43)
t_x_1952                                            1 	(obj:9)
t_x_1953                                            1 	(obj:22)
t_x_1954                                            1 	(obj:24)
t_x_1955                                            1 	(obj:22)
t_x_1958                                            1 	(obj:11)
t_x_1959                                            1 	(obj:11)
t_x_1970                                            1 	(obj:18)
t_x_1971                                            1 	(obj:48)
t_x_1974                                            1 	(obj:14)
t_x_1976                                            1 	(obj:17)
t_x_1979                                            1 	(obj:2)
t_x_1986                                            1 	(obj:8)
t_x_1994                                            1 	(obj:14)
t_x_1996                                            1 	(obj:14)
